 200 45 
 98 90 85 28 61 46 19 17 50 41 20 85 
 77 38 40 86 85 3 100 76 68 39 26 10 
 6 73 65 8 46 78 25 92 79 18 51 59 
 77 30 77 1 16 47 19 79 42 
 36 
 4 5 6 7 8 9 10 11 12 13 14 15 
 17 18 19 20 21 22 24 25 26 27 28 29 
 30 31 33 35 36 37 38 39 40 42 44 45 
 21 
 1 3 4 5 8 13 15 16 18 20 21 24 
 26 30 31 32 34 35 40 41 44 
 22 
 5 8 10 11 12 17 18 19 23 24 25 29 
 30 32 33 35 36 37 38 39 41 43 
 28 
 2 3 4 5 8 10 11 12 13 14 15 16 
 17 19 23 25 27 28 30 31 32 34 36 38 
 40 43 44 45 
 11 
 1 5 7 16 18 21 24 30 35 37 38 
 36 
 1 2 3 4 5 7 8 9 10 11 12 14 
 15 16 17 18 20 21 22 23 24 27 30 33 
 34 35 36 37 38 39 40 41 42 43 44 45 
 21 
 1 5 7 11 14 18 20 21 22 23 25 28 
 29 34 36 40 41 42 43 44 45 
 41 
 1 2 3 4 5 7 8 9 10 11 12 13 
 14 15 16 17 18 19 20 21 22 23 24 26 
 28 29 30 31 32 33 34 35 36 38 39 40 
 41 42 43 44 45 
 21 
 1 2 3 4 10 11 14 15 24 25 26 27 
 28 30 32 33 36 37 38 39 40 
 44 
 1 2 3 4 6 7 8 9 10 11 12 13 
 14 15 16 17 18 19 20 21 22 23 24 25 
 26 27 28 29 30 31 32 33 34 35 36 37 
 38 39 40 41 42 43 44 45 
 9 
 1 4 14 15 16 33 35 36 37 
 44 
 1 2 3 4 5 6 7 8 9 10 11 12 
 13 14 15 16 17 18 19 20 21 22 23 24 
 25 26 27 28 29 30 31 33 34 35 36 37 
 38 39 40 41 42 43 44 45 
 7 
 7 10 11 15 22 41 44 
 29 
 2 4 5 6 8 10 13 15 16 17 18 19 
 20 22 24 26 27 28 29 33 35 36 37 38 
 40 41 43 44 45 
 17 
 1 4 5 12 15 17 20 21 23 24 31 33 
 35 36 37 41 45 
 24 
 1 2 3 4 5 7 9 10 11 12 13 14 
 15 16 17 21 22 24 26 34 38 41 42 45 
 18 
 7 9 10 11 15 17 23 24 28 30 31 34 
 35 36 39 40 41 45 
 29 
 1 2 3 4 6 8 9 10 11 14 15 16 
 19 20 24 26 29 30 32 33 35 36 38 39 
 40 41 43 44 45 
 7 
 2 16 19 20 23 27 40 
 22 
 3 4 5 7 8 10 11 12 20 23 24 27 
 28 30 32 33 34 37 38 39 44 45 
 34 
 1 2 3 5 7 8 9 11 12 14 15 16 
 19 20 21 22 23 24 25 26 27 28 29 30 
 33 34 35 36 38 39 40 41 42 45 
 8 
 2 3 7 9 27 32 33 39 
 24 
 4 6 7 9 12 13 15 16 18 19 20 24 
 25 30 31 33 34 35 37 39 42 43 44 45 
 4 
 4 6 34 40 
 30 
 2 3 4 5 6 7 8 9 10 12 13 17 
 19 23 25 26 27 28 29 30 31 33 35 36 
 37 39 41 42 43 44 
 38 
 1 3 4 5 6 7 9 10 11 12 13 14 
 15 17 18 19 20 21 23 24 25 26 28 29 
 30 31 32 33 34 35 36 37 38 39 41 42 
 43 45 
 43 
 1 2 4 5 6 7 8 9 10 11 12 13 
 14 15 16 17 18 19 20 21 22 23 24 25 
 26 27 28 29 31 32 33 34 35 36 37 38 
 39 40 41 42 43 44 45 
 26 
 1 2 4 5 7 8 11 12 14 15 20 23 
 25 27 28 29 30 31 35 36 37 40 41 42 
 44 45 
 19 
 1 4 5 9 10 13 20 24 25 27 31 32 
 33 34 35 37 40 41 42 
 2 
 18 31 
 42 
 1 2 3 4 5 6 7 8 9 10 11 12 
 13 14 15 16 17 18 19 20 22 23 24 25 
 26 27 28 29 30 31 32 34 35 36 37 38 
 39 40 41 42 43 44 
 23 
 1 4 5 6 7 8 10 12 14 15 17 19 
 21 26 31 34 36 37 38 39 41 42 43 
 41 
 1 2 3 4 5 7 8 9 10 12 13 14 
 15 16 17 18 19 20 21 22 23 24 25 26 
 28 29 30 31 32 33 34 36 37 38 39 40 
 41 42 43 44 45 
 17 
 1 2 4 5 8 11 15 16 18 22 26 28 
 31 37 40 44 45 
 15 
 2 5 12 13 15 17 22 23 25 29 33 34 
 36 42 43 
 4 
 24 25 33 35 
 12 
 2 8 19 26 27 30 31 34 36 39 40 43 
 2 
 43 45 
 23 
 2 3 9 10 11 13 17 19 21 22 23 25 
 26 29 30 31 32 34 35 36 38 42 44 
 4 
 15 22 26 33 
 2 
 14 21 
 7 
 4 14 30 31 33 35 41 
 24 
 1 2 3 4 14 15 17 19 20 22 24 26 
 29 30 31 33 34 36 37 38 39 41 42 43 
 27 
 2 3 4 5 6 7 11 13 16 17 18 19 
 20 21 22 24 25 26 27 31 32 33 35 39 
 40 42 44 
 19 
 6 8 11 14 15 17 19 20 22 23 26 27 
 29 32 33 35 38 41 43 
 39 
 1 2 3 4 5 7 8 9 10 11 12 13 
 14 15 16 18 19 20 21 22 23 24 25 26 
 28 29 30 33 34 35 36 37 38 39 40 41 
 42 43 45 
 25 
 2 5 6 9 10 13 15 16 17 20 21 24 
 25 27 28 29 30 32 35 36 38 39 40 41 
 42 
 13 
 1 3 6 14 18 22 26 28 31 39 40 43 
 44 
 40 
 1 2 3 4 5 6 7 8 10 11 12 13 
 15 16 17 18 19 20 21 22 23 24 25 26 
 27 28 29 30 31 32 33 34 35 36 38 39 
 40 41 42 45 
 15 
 3 6 7 8 13 16 18 20 21 22 29 32 
 33 34 37 
 12 
 1 4 11 17 25 28 31 32 33 35 40 44 
 38 
 1 4 5 6 7 9 10 11 12 13 14 15 
 16 17 19 21 22 23 25 26 27 28 29 30 
 31 32 33 35 36 37 38 39 40 41 42 43 
 44 45 
 18 
 4 6 7 9 12 14 15 23 24 25 27 29 
 32 33 41 42 44 45 
 14 
 3 5 10 15 20 23 26 29 30 32 34 35 
 40 41 
 28 
 1 6 7 8 9 10 11 13 14 15 17 18 
 22 23 24 25 26 29 32 34 35 36 37 38 
 39 40 43 45 
 25 
 2 3 4 5 12 13 14 17 22 23 25 27 
 28 31 32 33 34 35 36 38 39 40 41 42 
 44 
 21 
 2 6 9 11 12 13 15 18 22 24 26 27 
 30 31 32 37 38 39 40 41 45 
 45 
 1 2 3 4 5 6 7 8 9 10 11 12 
 13 14 15 16 17 18 19 20 21 22 23 24 
 25 26 27 28 29 30 31 32 33 34 35 36 
 37 38 39 40 41 42 43 44 45 
 15 
 1 3 7 8 9 13 14 21 30 31 33 34 
 40 44 45 
 41 
 1 2 3 5 6 7 8 9 10 11 12 13 
 14 15 16 17 18 19 20 21 22 23 24 26 
 27 28 29 30 31 32 33 35 36 37 38 39 
 40 41 43 44 45 
 36 
 1 3 4 5 6 7 8 10 12 14 16 18 
 19 21 22 23 24 25 26 27 28 30 31 32 
 33 34 35 36 37 38 39 40 41 42 44 45 
 26 
 1 2 3 4 5 7 8 9 12 16 18 21 
 25 27 28 29 30 32 35 36 37 39 40 41 
 43 45 
 3 
 6 8 44 
 30 
 3 5 6 7 10 11 12 13 15 16 18 19 
 20 22 23 24 25 27 28 29 30 31 33 35 
 37 38 39 41 42 44 
 36 
 1 2 3 4 5 6 7 9 10 11 12 13 
 15 16 18 19 20 21 22 23 24 25 26 27 
 28 29 30 31 32 34 37 38 40 41 42 44 
 18 
 1 4 5 9 12 13 15 18 22 23 25 27 
 38 39 40 41 43 45 
 43 
 1 2 3 4 5 6 7 8 9 10 11 12 
 13 14 15 16 17 18 19 20 21 22 23 25 
 26 27 28 29 30 31 32 33 34 35 36 37 
 38 39 40 42 43 44 45 
 16 
 1 2 4 6 8 13 14 16 19 25 29 30 
 33 34 37 43 
 28 
 4 6 7 8 9 10 12 14 15 16 17 19 
 20 25 26 27 28 29 30 33 34 37 39 40 
 41 42 43 44 
 8 
 6 20 28 30 31 34 35 45 
 40 
 1 2 3 4 5 6 7 8 10 11 12 13 
 14 15 16 17 18 20 21 22 23 24 25 26 
 27 28 30 32 33 34 36 37 38 39 40 41 
 42 43 44 45 
 29 
 2 4 5 6 7 8 11 12 16 17 18 19 
 20 21 24 26 27 29 30 31 34 36 37 38 
 40 41 42 44 45 
 3 
 7 40 44 
 6 
 5 12 29 40 42 44 
 39 
 1 2 3 4 5 6 8 10 11 12 13 14 
 15 16 17 19 20 21 22 23 24 25 26 27 
 28 29 32 33 34 35 36 37 38 40 41 42 
 43 44 45 
 33 
 1 2 3 4 6 7 8 9 10 12 13 14 
 15 16 19 20 21 24 26 28 30 33 34 35 
 36 37 38 39 40 41 42 43 45 
 34 
 2 3 4 5 6 7 8 13 14 15 16 17 
 18 19 20 21 22 23 25 26 27 30 32 33 
 34 36 37 38 39 40 41 42 43 44 
 11 
 2 7 17 18 22 26 32 35 42 43 44 
 6 
 6 8 30 33 37 45 
 25 
 2 3 7 8 9 10 11 14 16 18 19 21 
 25 26 29 30 32 33 34 36 40 41 43 44 
 45 
 12 
 2 4 6 7 8 10 17 27 29 33 39 44 
 31 
 1 2 4 5 6 7 10 11 12 13 14 15 
 16 17 18 19 20 21 22 23 24 26 29 30 
 35 36 38 40 41 42 43 
 28 
 1 5 6 7 9 12 13 14 16 17 19 20 
 21 22 23 24 25 26 28 34 35 36 37 39 
 40 42 44 45 
 34 
 1 2 3 5 9 10 11 13 14 16 17 18 
 19 20 21 22 23 24 25 26 27 28 29 30 
 33 35 36 37 38 39 41 42 43 45 
 35 
 1 2 4 5 6 7 9 10 11 13 14 15 
 17 18 19 20 21 22 23 24 28 29 32 33 
 34 35 36 38 39 40 41 42 43 44 45 
 18 
 1 2 6 7 8 12 13 17 18 28 29 34 
 35 36 39 42 43 45 
 23 
 1 2 3 6 7 8 10 11 14 15 16 17 
 21 22 29 30 31 36 37 39 40 42 43 
 43 
 1 2 3 4 5 6 7 8 9 10 11 12 
 13 14 15 16 17 18 19 20 21 22 23 24 
 25 26 27 28 29 30 31 32 33 35 36 37 
 38 39 41 42 43 44 45 
 30 
 1 2 3 7 8 9 10 11 12 14 15 17 
 18 20 21 22 23 24 25 26 27 29 30 33 
 34 35 36 37 43 45 
 23 
 2 5 9 13 16 18 19 22 23 24 25 27 
 28 29 31 32 33 34 35 36 42 43 45 
 20 
 5 8 11 12 16 19 20 21 22 23 26 27 
 29 34 36 38 39 40 42 45 
 15 
 2 4 8 13 19 20 22 23 24 26 31 33 
 35 39 42 
 4 
 2 23 39 41 
 6 
 9 17 31 34 44 45 
 36 
 2 3 4 6 7 8 9 10 11 12 13 15 
 16 17 19 21 22 23 24 25 26 27 30 31 
 32 34 35 36 37 38 39 40 41 42 43 45 
 37 
 1 2 3 4 6 7 9 10 11 12 13 14 
 17 19 20 21 22 23 24 25 26 27 28 29 
 32 33 34 35 37 38 39 40 41 42 43 44 
 45 
 43 
 1 2 3 4 5 6 7 8 9 10 11 12 
 13 15 16 17 18 19 20 21 22 23 25 26 
 27 28 29 30 31 32 33 34 35 36 37 38 
 39 40 41 42 43 44 45 
 22 
 1 5 8 9 11 12 16 17 20 23 25 26 
 27 28 30 31 32 35 40 43 44 45 
 9 
 10 13 18 20 21 23 30 39 40 
 2 
 1 9 
 5 
 18 19 20 33 37 
 23 
 2 3 4 5 6 7 8 9 10 12 14 16 
 20 21 23 25 27 31 39 40 41 42 45 
 16 
 3 4 8 9 11 15 16 19 22 23 31 35 
 36 42 43 44 
 28 
 1 2 3 4 5 7 9 14 15 17 18 19 
 21 23 27 28 29 31 33 35 36 37 38 40 
 41 43 44 45 
 42 
 1 2 3 4 5 6 7 8 9 10 11 13 
 14 15 16 17 18 19 20 21 22 23 24 25 
 26 27 28 29 30 31 32 34 35 36 37 38 
 39 40 41 42 43 44 
 42 
 1 2 3 4 5 6 7 8 9 10 11 12 
 13 14 15 16 17 18 19 20 21 22 23 24 
 25 26 27 28 29 31 32 33 34 35 36 38 
 39 40 42 43 44 45 
 23 
 2 4 5 7 8 10 13 14 15 16 19 22 
 23 27 29 31 33 35 37 38 39 40 43 
 44 
 1 2 3 4 5 6 7 8 9 10 11 12 
 13 14 15 16 17 18 19 20 21 22 23 24 
 25 26 27 28 29 30 31 32 34 35 36 37 
 38 39 40 41 42 43 44 45 
 22 
 1 4 5 8 10 11 12 14 16 18 21 25 
 26 28 30 31 35 36 39 40 43 45 
 39 
 1 2 3 4 5 6 8 9 10 11 12 13 
 14 15 16 18 19 20 21 22 23 25 27 28 
 29 30 31 32 33 34 35 38 39 40 41 42 
 43 44 45 
 13 
 3 8 9 13 16 17 22 24 26 29 39 41 
 43 
 27 
 2 3 5 6 7 8 9 10 12 14 15 16 
 17 21 22 24 25 27 28 29 32 33 36 37 
 38 40 43 
 24 
 1 2 3 4 6 9 10 11 13 17 19 21 
 28 29 31 32 34 35 37 38 39 40 43 45 
 44 
 1 2 3 4 5 6 7 8 9 10 11 12 
 13 14 15 16 17 18 19 20 21 22 23 24 
 25 26 27 28 29 30 31 32 34 35 36 37 
 38 39 40 41 42 43 44 45 
 41 
 1 2 3 4 5 6 7 9 10 11 12 13 
 14 15 16 17 18 19 20 21 22 24 25 26 
 27 28 29 30 31 32 33 34 36 37 38 39 
 40 42 43 44 45 
 29 
 1 2 4 6 7 8 9 11 14 15 16 17 
 18 20 21 22 26 27 28 29 31 35 36 37 
 39 42 43 44 45 
 19 
 5 6 7 8 11 12 15 20 22 24 26 30 
 31 33 34 36 38 40 42 
 8 
 4 7 13 26 32 36 37 45 
 24 
 2 3 5 6 7 9 10 11 12 15 17 18 
 21 22 24 28 29 30 31 32 34 39 44 45 
 2 
 8 23 
 26 
 1 3 4 7 9 10 12 13 15 16 18 19 
 21 22 24 25 28 31 33 34 37 38 40 41 
 42 45 
 29 
 3 5 6 7 8 9 10 11 12 13 14 15 
 16 17 18 20 21 22 24 25 26 27 28 29 
 32 33 37 41 44 
 43 
 2 3 4 5 6 7 8 9 10 11 12 13 
 14 15 16 18 19 20 21 22 23 24 25 26 
 27 28 29 30 31 32 33 34 35 36 37 38 
 39 40 41 42 43 44 45 
 38 
 1 2 3 4 5 6 7 8 9 10 11 12 
 13 14 15 17 18 21 22 23 24 26 27 29 
 30 31 33 34 35 36 37 38 39 40 41 42 
 43 45 
 45 
 1 2 3 4 5 6 7 8 9 10 11 12 
 13 14 15 16 17 18 19 20 21 22 23 24 
 25 26 27 28 29 30 31 32 33 34 35 36 
 37 38 39 40 41 42 43 44 45 
 8 
 2 10 15 21 38 39 42 43 
 42 
 1 2 4 5 6 7 8 9 10 11 12 13 
 14 15 16 17 18 19 20 21 22 23 24 25 
 26 27 28 29 30 31 32 33 34 36 37 38 
 39 40 41 42 43 45 
 17 
 3 4 5 6 7 8 10 14 16 18 23 26 
 30 32 35 43 45 
 10 
 3 7 9 19 20 23 24 26 30 31 
 40 
 1 2 4 5 6 7 8 9 10 12 13 14 
 15 16 17 19 20 21 22 23 24 25 26 27 
 30 31 32 33 34 35 36 37 38 39 40 41 
 42 43 44 45 
 2 
 8 44 
 21 
 4 5 6 7 9 13 15 17 19 23 24 25 
 26 27 28 30 31 33 39 40 45 
 9 
 7 13 17 27 28 33 38 42 43 
 15 
 2 3 4 10 11 13 15 16 17 18 24 26 
 40 41 43 
 41 
 2 3 4 5 6 7 8 9 10 11 12 13 
 14 15 16 17 18 19 20 21 23 25 26 27 
 28 29 30 31 32 33 34 35 36 37 38 39 
 41 42 43 44 45 
 19 
 1 2 4 5 7 8 11 12 18 19 21 24 
 29 34 35 38 40 41 44 
 6 
 3 7 10 36 39 43 
 6 
 12 15 25 31 38 40 
 36 
 1 2 3 4 7 8 9 10 11 12 13 14 
 15 16 17 18 19 20 21 22 23 24 25 27 
 28 29 32 33 36 37 40 41 42 43 44 45 
 14 
 5 6 9 13 14 16 19 20 34 36 37 40 
 42 45 
 16 
 7 8 9 10 12 15 17 26 28 29 30 31 
 32 35 38 44 
 7 
 2 9 25 29 30 38 42 
 9 
 4 10 11 21 26 30 35 37 41 
 40 
 2 3 6 8 9 10 11 12 13 14 15 16 
 17 18 19 20 21 22 23 24 25 26 27 28 
 29 30 31 32 33 34 35 36 37 38 39 40 
 42 43 44 45 
 45 
 1 2 3 4 5 6 7 8 9 10 11 12 
 13 14 15 16 17 18 19 20 21 22 23 24 
 25 26 27 28 29 30 31 32 33 34 35 36 
 37 38 39 40 41 42 43 44 45 
 2 
 1 14 
 36 
 1 2 3 5 6 7 8 9 10 11 12 13 
 14 15 17 19 20 21 22 24 25 26 28 29 
 30 31 33 34 36 39 40 41 42 43 44 45 
 30 
 1 2 5 7 8 9 10 12 13 14 17 19 
 20 21 22 23 24 25 28 29 30 32 34 35 
 36 37 38 42 43 44 
 39 
 1 3 4 5 6 7 8 9 10 11 12 13 
 14 15 17 18 20 21 22 23 24 25 27 28 
 29 30 31 32 33 34 35 36 37 38 40 41 
 42 43 44 
 42 
 1 2 3 4 5 6 8 9 10 11 12 13 
 14 15 16 18 19 20 21 22 23 24 25 26 
 27 28 29 30 31 32 34 35 36 37 38 39 
 40 41 42 43 44 45 
 28 
 2 3 6 8 10 11 12 13 14 17 18 19 
 20 21 24 25 26 27 28 30 34 38 39 40 
 41 42 43 44 
 16 
 2 7 14 19 24 25 28 29 30 34 36 37 
 38 39 41 43 
 16 
 2 4 5 11 12 14 17 20 26 27 30 33 
 34 39 41 43 
 15 
 1 4 5 8 18 19 22 23 24 27 30 34 
 36 39 43 
 20 
 1 3 4 6 7 10 11 13 14 15 19 20 
 22 26 28 35 36 38 43 44 
 34 
 1 3 4 6 7 8 9 10 11 12 15 16 
 17 18 19 20 22 23 24 25 26 27 29 30 
 31 32 33 36 37 38 39 41 43 44 
 17 
 3 4 5 6 7 9 10 13 14 15 19 21 
 23 24 29 38 44 
 10 
 4 5 8 15 27 28 35 40 41 43 
 18 
 5 9 11 13 14 15 16 18 19 21 23 28 
 32 35 36 38 40 44 
 39 
 1 2 3 4 6 7 8 9 10 11 12 13 
 14 15 16 18 19 20 22 23 24 25 26 27 
 29 30 31 32 33 34 35 36 37 38 39 40 
 41 42 43 
 17 
 7 9 10 13 14 15 17 19 23 28 32 33 
 34 35 38 41 45 
 7 
 18 21 23 30 32 43 44 
 23 
 1 2 4 5 7 8 9 10 11 14 16 18 
 19 21 23 29 30 33 35 37 38 40 43 
 40 
 1 2 3 4 5 6 7 8 9 10 11 12 
 14 15 17 18 19 20 21 22 23 24 25 27 
 28 29 30 31 32 33 34 35 36 37 38 39 
 40 42 44 45 
 44 
 1 2 3 4 5 6 7 8 9 10 11 12 
 13 14 15 16 17 18 19 20 21 22 23 24 
 25 26 27 28 29 30 31 32 33 34 35 36 
 37 39 40 41 42 43 44 45 
 39 
 1 3 4 5 6 8 10 13 14 15 16 17 
 18 19 20 21 22 23 24 25 26 27 28 29 
 30 32 33 34 35 36 37 38 39 40 41 42 
 43 44 45 
 13 
 2 5 9 14 17 18 28 31 35 38 40 43 
 45 
 39 
 3 4 5 6 7 8 9 10 11 12 13 14 
 15 16 17 18 19 20 21 22 23 24 26 27 
 29 30 31 32 34 35 36 37 38 40 41 42 
 43 44 45 
 15 
 5 7 9 12 14 16 19 21 22 30 34 38 
 41 43 45 
 37 
 1 2 3 5 7 8 9 11 12 13 15 16 
 17 18 20 21 23 24 25 26 27 28 29 30 
 32 33 34 36 37 38 39 40 41 42 43 44 
 45 
 38 
 1 2 3 4 7 8 9 10 11 12 13 14 
 16 17 18 20 21 22 23 25 26 27 28 29 
 30 31 32 33 34 36 37 38 39 40 42 43 
 44 45 
 39 
 1 2 3 4 5 6 7 8 9 10 12 13 
 14 15 16 17 18 19 21 22 23 24 25 26 
 27 28 30 31 32 33 34 35 36 38 39 40 
 41 43 45 
 18 
 2 4 8 10 14 17 19 21 23 24 26 28 
 31 34 35 36 40 45 
 24 
 1 3 8 11 12 13 14 16 18 19 20 23 
 25 26 28 29 30 31 33 35 37 38 40 45 
 6 
 5 14 15 16 29 43 
 38 
 1 2 3 4 5 6 7 8 9 11 12 13 
 14 16 17 18 19 20 22 23 24 26 27 28 
 29 31 32 33 34 35 36 37 38 39 41 42 
 43 44 
 11 
 3 6 7 12 16 21 27 29 33 39 42 
 28 
 2 3 5 6 8 9 12 14 16 19 21 22 
 23 24 25 26 28 32 33 34 35 36 38 39 
 40 43 44 45 
 6 
 1 14 16 30 39 42 
 41 
 1 2 4 5 6 8 10 11 12 13 14 15 
 16 17 18 19 20 21 22 23 24 25 26 27 
 28 30 31 32 33 34 35 36 37 38 39 40 
 41 42 43 44 45 
 33 
 1 2 4 5 6 7 8 9 10 11 12 14 
 15 16 17 18 20 22 24 26 27 28 31 32 
 34 35 37 39 40 41 43 44 45 
 7 
 1 15 16 22 31 36 37 
 20 
 4 5 6 7 8 13 14 15 17 18 20 22 
 29 31 32 33 36 39 41 44 
 31 
 3 4 5 7 8 11 12 13 14 15 16 18 
 19 22 23 24 25 27 28 30 31 32 36 38 
 39 40 41 42 43 44 45 
 39 
 1 2 4 5 6 7 8 9 11 12 13 14 
 16 17 18 20 22 23 24 26 27 28 29 30 
 31 32 33 34 35 36 37 38 39 40 41 42 
 43 44 45 
 3 
 10 29 38 
 13 
 5 7 8 16 22 24 27 29 31 37 40 42 
 45 
 25 
 2 6 9 10 11 12 14 17 20 22 23 26 
 27 29 30 31 34 35 36 38 39 41 42 44 
 45 
 28 
 1 3 9 11 12 13 14 15 16 17 19 20 
 22 23 24 25 26 27 34 35 36 37 38 40 
 41 42 44 45 
 40 
 1 2 3 4 6 7 8 9 11 12 13 14 
 15 16 17 18 19 20 21 22 23 24 25 26 
 27 28 30 31 32 33 34 36 37 39 40 41 
 42 43 44 45 
 45 
 1 2 3 4 5 6 7 8 9 10 11 12 
 13 14 15 16 17 18 19 20 21 22 23 24 
 25 26 27 28 29 30 31 32 33 34 35 36 
 37 38 39 40 41 42 43 44 45 
 3 
 9 14 34 
 28 
 1 2 4 6 7 8 9 11 12 14 15 17 
 19 21 22 23 26 27 31 34 35 36 37 39 
 40 41 44 45 
 6 
 5 10 15 19 32 42 
 26 
 1 2 5 11 12 13 14 15 17 18 19 20 
 21 22 25 27 31 32 33 36 37 38 39 40 
 41 44 
 13 
 2 5 7 9 11 13 25 26 31 33 34 35 
 44 
 12 
 8 11 18 19 22 25 27 28 29 31 38 43 
 5 
 1 2 5 19 33 
 27 
 3 4 5 6 8 9 10 11 12 13 14 16 
 17 19 20 22 23 25 28 32 33 34 35 36 
 38 39 44 
 45 
 1 2 3 4 5 6 7 8 9 10 11 12 
 13 14 15 16 17 18 19 20 21 22 23 24 
 25 26 27 28 29 30 31 32 33 34 35 36 
 37 38 39 40 41 42 43 44 45 
 